benchmarks/bfuzz0/159982662119931281273121121117149366753.smt2
(set-logic QF_FP)
(declare-const x0 (_ FloatingPoint 8 24))
(declare-const x1 (_ FloatingPoint 8 24))
(declare-const x2 (_ FloatingPoint 8 24))
(declare-const x3 (_ FloatingPoint 8 24))
(declare-const x4 (_ FloatingPoint 8 24))
(declare-const x5 (_ FloatingPoint 8 24))
(declare-const x6 (_ FloatingPoint 8 24))
(declare-const x7 (_ FloatingPoint 8 24))
(declare-const x8 (_ FloatingPoint 8 24))
(assert (fp.leq (fp.sub RNE x3 x6) (fp.add RNE x1 x4)))
(assert (fp.leq (fp.mul RNE x2 x2) (fp.mul RNE x4 x0)))
(assert (fp.gt (fp.div RNE x5 x3) (fp.neg x4)))
(check-sat)
