db/data/159982662119931281273121121117149366753.z3.out
sat
-------------------
20.029219495
